c A SAT instance generated from a 3-CNF formula that had 14 clauses and 7 variables
p cnf 7 14
2 7 -5 0
-4 -3 -1 0
-6 1 7 0
-7 5 4 0
-7 -5 -4 0
6 4 -5 0
-7 -4 6 0
-5 -6 -7 0
4 7 -1 0
4 -6 -2 0
-7 2 5 0
3 -4 -7 0
4 -5 6 0
-4 5 -1 0
